3 48 1 10
7 19 16 12 15 19 18 4 13 19 14 14 10 19 8 9 13 15 13 13 5 20 8 5 2 6 14 7 3 18 10 16 20 9 19 5 15 20 17 1 14 2 20 18 4 8 13 9 
6.42 15.57 5.91 1.95 15.39 0.58 13.15 7.12 4.77 4.71 8.9 3.13 11.04 0.89 9.13 1.59 5.98 3.16 1.09 12.36 11.45 10.91 11.71 1.64 6.07 7.31 1.04 11.91 0.96 9.28 11.45 8.79 11.56 10 14.18 9.26 6.01 1.32 9.54 1.5 10.69 2.29 11.88 3.64 15.31 6.47 5.87 10.94 
8 8 8 8 8 8 8 8 8 8 8 8 8 8 8 8 8 8 8 8 8 8 8 8 8 8 8 8 8 8 8 8 8 8 8 8 8 8 8 8 8 8 8 8 8 8 8 8 
9.84 0.07 13.84 11.38 13.99 1.24 3.13 13.11 3.88 1.04 5.83 4.8 4.21 12.58 3.69 1.56 14.53 11.14 9.63 14 12.52 13.59 8.79 10.8 0.82 15.64 7.13 0.71 3.49 15.48 4.37 13.87 12.73 11.04 7.01 5.39 9.58 1.99 3.96 8.09 0.1 4.36 3.64 7.86 1.65 15.22 14.92 10.64 
1 1 1 1 1 1 1 1 1 1 1 1 1 1 1 1 1 1 1 1 1 1 1 1 1 1 1 1 1 1 1 1 1 1 1 1 1 1 1 1 1 1 1 1 1 1 1 1 
1 1 1 1 1 1 1 1 1 1 1 1 1 1 1 1 1 1 1 1 1 1 1 1 1 1 1 1 1 1 1 1 1 1 1 1 1 1 1 1 1 1 1 1 1 1 1 1 
1 1 1 1 1 1 1 1 1 1 1 1 1 1 1 1 1 1 1 1 1 1 1 1 1 1 1 1 1 1 1 1 1 1 1 1 1 1 1 1 1 1 1 1 1 1 1 1 
0.01 0.01 0.01 0.01 0.01 0.01 0.01 0.01 0.01 0.01 0.01 0.01 0.01 0.01 0.01 0.01 0.01 0.01 0.01 0.01 0.01 0.01 0.01 0.01 0.01 0.01 0.01 0.01 0.01 0.01 0.01 0.01 0.01 0.01 0.01 0.01 0.01 0.01 0.01 0.01 0.01 0.01 0.01 0.01 0.01 0.01 0.01 0.01 
0.02 0.02 0.02 0.02 0.02 0.02 0.02 0.02 0.02 0.02 0.02 0.02 0.02 0.02 0.02 0.02 0.02 0.02 0.02 0.02 0.02 0.02 0.02 0.02 0.02 0.02 0.02 0.02 0.02 0.02 0.02 0.02 0.02 0.02 0.02 0.02 0.02 0.02 0.02 0.02 0.02 0.02 0.02 0.02 0.02 0.02 0.02 0.02 
1 1 1 1 1 1 1 1 1 1 1 1 1 1 1 1 1 1 1 1 1 1 1 1 1 1 1 1 1 1 1 1 1 1 1 1 1 1 1 1 1 1 1 1 1 1 1 1 
